results/res_prop_muc/res_Cimatti_mathsat_cores/QF_LIA/ckt_PROP2_tf_15.smt.smt2.res
unsat
( c10
  c113
  c129
  c131
  c137
  c142
  c149
  c161
  c17
  c170
  c180
  c191
  c2
  c203
  c206
  c216
  c230
  c231
  c245
  c247
  c261
  c262
  c263
  c265
  c266
  c268
  c270
  c273
  c274
  c275
  c276
  c277
  c278
  c281
  c29
  c38
  c48
  c51
  c59
  c71
  c84
  c98
  c99 )
